\* LocationModel *\
Maximize
OBJ: - 15000 h_2023_Center_A - 15000 h_2023_Center_B - 15000 h_2023_Center_C
 - 15000 h_2023_Center_D - 15000 h_2023_Center_E - 15000 h_2023_Center_F
 - 15000 h_2024_Center_A - 15000 h_2024_Center_B - 15000 h_2024_Center_C
 - 15000 h_2024_Center_D - 15000 h_2024_Center_E - 15000 h_2024_Center_F
 - 15000 h_2025_Center_A - 15000 h_2025_Center_B - 15000 h_2025_Center_C
 - 15000 h_2025_Center_D - 15000 h_2025_Center_E - 15000 h_2025_Center_F
 - 3.0125 x_2023_Center_A_Mississauga_East
 + 1.24 x_2023_Center_A_North_Toronto + 4.15 x_2023_Center_A_North_York
 - 0.79 x_2023_Center_A_Scarborough_East
 - 4.3325 x_2023_Center_B_Mississauga_East
 - 2.1125 x_2023_Center_B_North_Toronto - 1.595 x_2023_Center_B_North_York
 + 4.15 x_2023_Center_B_Scarborough_East
 - 1.245 x_2023_Center_C_Mississauga_East
 - 1.5975 x_2023_Center_C_North_Toronto - 0.98 x_2023_Center_C_North_York
 + 0.435 x_2023_Center_C_Scarborough_East
 + 4.15 x_2023_Center_D_Mississauga_East
 - 2.1125 x_2023_Center_D_North_Toronto - 1.595 x_2023_Center_D_North_York
 - 2.545 x_2023_Center_D_Scarborough_East
 - 1.0125 x_2023_Center_E_Mississauga_East
 + 4.15 x_2023_Center_E_North_Toronto + 1.24 x_2023_Center_E_North_York
 - 2.3225 x_2023_Center_E_Scarborough_East
 + 4.15 x_2023_Center_F_Mississauga_East
 - 1.0125 x_2023_Center_F_North_Toronto - 3.0125 x_2023_Center_F_North_York
 - 0.1025 x_2023_Center_F_Scarborough_East
 - 3.95875 x_2024_Center_A_Mississauga_East
 + 0.29375 x_2024_Center_A_North_Toronto + 3.20375 x_2024_Center_A_North_York
 - 1.73625 x_2024_Center_A_Scarborough_East
 - 5.27875 x_2024_Center_B_Mississauga_East
 - 3.05875 x_2024_Center_B_North_Toronto - 2.54125 x_2024_Center_B_North_York
 + 3.20375 x_2024_Center_B_Scarborough_East
 - 2.19125 x_2024_Center_C_Mississauga_East
 - 2.54375 x_2024_Center_C_North_Toronto - 1.92625 x_2024_Center_C_North_York
 - 0.51125 x_2024_Center_C_Scarborough_East
 + 3.20375 x_2024_Center_D_Mississauga_East
 - 3.05875 x_2024_Center_D_North_Toronto - 2.54125 x_2024_Center_D_North_York
 - 3.49125 x_2024_Center_D_Scarborough_East
 - 1.95875 x_2024_Center_E_Mississauga_East
 + 3.20375 x_2024_Center_E_North_Toronto + 0.29375 x_2024_Center_E_North_York
 - 3.26875 x_2024_Center_E_Scarborough_East
 + 3.20375 x_2024_Center_F_Mississauga_East
 - 1.95875 x_2024_Center_F_North_Toronto - 3.95875 x_2024_Center_F_North_York
 - 1.04875 x_2024_Center_F_Scarborough_East
 - 4.92865625 x_2025_Center_A_Mississauga_East
 - 0.67615625 x_2025_Center_A_North_Toronto
 + 2.23384375 x_2025_Center_A_North_York
 - 2.70615625 x_2025_Center_A_Scarborough_East
 - 6.24865625 x_2025_Center_B_Mississauga_East
 - 4.02865625 x_2025_Center_B_North_Toronto
 - 3.51115625 x_2025_Center_B_North_York
 + 2.23384375 x_2025_Center_B_Scarborough_East
 - 3.16115625 x_2025_Center_C_Mississauga_East
 - 3.51365625 x_2025_Center_C_North_Toronto
 - 2.89615625 x_2025_Center_C_North_York
 - 1.48115625 x_2025_Center_C_Scarborough_East
 + 2.23384375 x_2025_Center_D_Mississauga_East
 - 4.02865625 x_2025_Center_D_North_Toronto
 - 3.51115625 x_2025_Center_D_North_York
 - 4.46115625 x_2025_Center_D_Scarborough_East
 - 2.92865625 x_2025_Center_E_Mississauga_East
 + 2.23384375 x_2025_Center_E_North_Toronto
 - 0.67615625 x_2025_Center_E_North_York
 - 4.23865625 x_2025_Center_E_Scarborough_East
 + 2.23384375 x_2025_Center_F_Mississauga_East
 - 2.92865625 x_2025_Center_F_North_Toronto
 - 4.92865625 x_2025_Center_F_North_York
 - 2.01865625 x_2025_Center_F_Scarborough_East - 275000 y_2023_Center_A
 - 275000 y_2023_Center_B - 275000 y_2023_Center_C - 285000 y_2023_Center_D
 - 375000 y_2023_Center_E - 275000 y_2023_Center_F - 275000 y_2024_Center_A
 - 275000 y_2024_Center_B - 275000 y_2024_Center_C - 285000 y_2024_Center_D
 - 125000 y_2024_Center_E - 175000 y_2024_Center_F - 275000 y_2025_Center_A
 - 275000 y_2025_Center_B - 275000 y_2025_Center_C - 285000 y_2025_Center_D
 - 125000 y_2025_Center_E - 175000 y_2025_Center_F
Subject To
_C1: x_2023_Center_A_Mississauga_East + x_2023_Center_B_Mississauga_East
 + x_2023_Center_C_Mississauga_East + x_2023_Center_D_Mississauga_East
 + x_2023_Center_E_Mississauga_East + x_2023_Center_F_Mississauga_East
 = 406851
_C10: x_2025_Center_A_North_Toronto + x_2025_Center_B_North_Toronto
 + x_2025_Center_C_North_Toronto + x_2025_Center_D_North_Toronto
 + x_2025_Center_E_North_Toronto + x_2025_Center_F_North_Toronto = 448859
_C11: x_2025_Center_A_North_York + x_2025_Center_B_North_York
 + x_2025_Center_C_North_York + x_2025_Center_D_North_York
 + x_2025_Center_E_North_York + x_2025_Center_F_North_York = 548169
_C12: x_2025_Center_A_Scarborough_East + x_2025_Center_B_Scarborough_East
 + x_2025_Center_C_Scarborough_East + x_2025_Center_D_Scarborough_East
 + x_2025_Center_E_Scarborough_East + x_2025_Center_F_Scarborough_East
 = 479871
_C13: x_2023_Center_A_Mississauga_East + x_2023_Center_A_North_Toronto
 + x_2023_Center_A_North_York + x_2023_Center_A_Scarborough_East
 - 5000000 y_2023_Center_A <= 0
_C14: x_2023_Center_B_Mississauga_East + x_2023_Center_B_North_Toronto
 + x_2023_Center_B_North_York + x_2023_Center_B_Scarborough_East
 - 5000000 y_2023_Center_B <= 0
_C15: x_2023_Center_C_Mississauga_East + x_2023_Center_C_North_Toronto
 + x_2023_Center_C_North_York + x_2023_Center_C_Scarborough_East
 - 5000000 y_2023_Center_C <= 0
_C16: x_2023_Center_D_Mississauga_East + x_2023_Center_D_North_Toronto
 + x_2023_Center_D_North_York + x_2023_Center_D_Scarborough_East
 - 5000000 y_2023_Center_D <= 0
_C17: x_2023_Center_E_Mississauga_East + x_2023_Center_E_North_Toronto
 + x_2023_Center_E_North_York + x_2023_Center_E_Scarborough_East
 - 5000000 y_2023_Center_E <= 0
_C18: x_2023_Center_F_Mississauga_East + x_2023_Center_F_North_Toronto
 + x_2023_Center_F_North_York + x_2023_Center_F_Scarborough_East
 - 5000000 y_2023_Center_F <= 0
_C19: x_2024_Center_A_Mississauga_East + x_2024_Center_A_North_Toronto
 + x_2024_Center_A_North_York + x_2024_Center_A_Scarborough_East
 - 5000000 y_2024_Center_A <= 0
_C2: x_2023_Center_A_North_Toronto + x_2023_Center_B_North_Toronto
 + x_2023_Center_C_North_Toronto + x_2023_Center_D_North_Toronto
 + x_2023_Center_E_North_Toronto + x_2023_Center_F_North_Toronto = 417190
_C20: x_2024_Center_B_Mississauga_East + x_2024_Center_B_North_Toronto
 + x_2024_Center_B_North_York + x_2024_Center_B_Scarborough_East
 - 5000000 y_2024_Center_B <= 0
_C21: x_2024_Center_C_Mississauga_East + x_2024_Center_C_North_Toronto
 + x_2024_Center_C_North_York + x_2024_Center_C_Scarborough_East
 - 5000000 y_2024_Center_C <= 0
_C22: x_2024_Center_D_Mississauga_East + x_2024_Center_D_North_Toronto
 + x_2024_Center_D_North_York + x_2024_Center_D_Scarborough_East
 - 5000000 y_2024_Center_D <= 0
_C23: x_2024_Center_E_Mississauga_East + x_2024_Center_E_North_Toronto
 + x_2024_Center_E_North_York + x_2024_Center_E_Scarborough_East
 - 5000000 y_2024_Center_E <= 0
_C24: x_2024_Center_F_Mississauga_East + x_2024_Center_F_North_Toronto
 + x_2024_Center_F_North_York + x_2024_Center_F_Scarborough_East
 - 5000000 y_2024_Center_F <= 0
_C25: x_2025_Center_A_Mississauga_East + x_2025_Center_A_North_Toronto
 + x_2025_Center_A_North_York + x_2025_Center_A_Scarborough_East
 - 5000000 y_2025_Center_A <= 0
_C26: x_2025_Center_B_Mississauga_East + x_2025_Center_B_North_Toronto
 + x_2025_Center_B_North_York + x_2025_Center_B_Scarborough_East
 - 5000000 y_2025_Center_B <= 0
_C27: x_2025_Center_C_Mississauga_East + x_2025_Center_C_North_Toronto
 + x_2025_Center_C_North_York + x_2025_Center_C_Scarborough_East
 - 5000000 y_2025_Center_C <= 0
_C28: x_2025_Center_D_Mississauga_East + x_2025_Center_D_North_Toronto
 + x_2025_Center_D_North_York + x_2025_Center_D_Scarborough_East
 - 5000000 y_2025_Center_D <= 0
_C29: x_2025_Center_E_Mississauga_East + x_2025_Center_E_North_Toronto
 + x_2025_Center_E_North_York + x_2025_Center_E_Scarborough_East
 - 5000000 y_2025_Center_E <= 0
_C3: x_2023_Center_A_North_York + x_2023_Center_B_North_York
 + x_2023_Center_C_North_York + x_2023_Center_D_North_York
 + x_2023_Center_E_North_York + x_2023_Center_F_North_York = 508686
_C30: x_2025_Center_F_Mississauga_East + x_2025_Center_F_North_Toronto
 + x_2025_Center_F_North_York + x_2025_Center_F_Scarborough_East
 - 5000000 y_2025_Center_F <= 0
_C31: - h_2023_Center_A + w_2023_Center_A = 215
_C32: h_2023_Center_A <= 300
_C33: - h_2023_Center_B + w_2023_Center_B = 125
_C34: h_2023_Center_B <= 300
_C35: - h_2023_Center_C + w_2023_Center_C = 100
_C36: h_2023_Center_C <= 300
_C37: - h_2023_Center_D + w_2023_Center_D = 120
_C38: h_2023_Center_D <= 300
_C39: - h_2023_Center_E + w_2023_Center_E = 0
_C4: x_2023_Center_A_Scarborough_East + x_2023_Center_B_Scarborough_East
 + x_2023_Center_C_Scarborough_East + x_2023_Center_D_Scarborough_East
 + x_2023_Center_E_Scarborough_East + x_2023_Center_F_Scarborough_East
 = 445900
_C40: h_2023_Center_E <= 300
_C41: - h_2023_Center_F + w_2023_Center_F = 0
_C42: h_2023_Center_F <= 300
_C43: - h_2024_Center_A - w_2023_Center_A + w_2024_Center_A = 0
_C44: h_2024_Center_A <= 300
_C45: - h_2024_Center_B - w_2023_Center_B + w_2024_Center_B = 0
_C46: h_2024_Center_B <= 300
_C47: - h_2024_Center_C - w_2023_Center_C + w_2024_Center_C = 0
_C48: h_2024_Center_C <= 300
_C49: - h_2024_Center_D - w_2023_Center_D + w_2024_Center_D = 0
_C5: x_2024_Center_A_Mississauga_East + x_2024_Center_B_Mississauga_East
 + x_2024_Center_C_Mississauga_East + x_2024_Center_D_Mississauga_East
 + x_2024_Center_E_Mississauga_East + x_2024_Center_F_Mississauga_East
 = 422397
_C50: h_2024_Center_D <= 300
_C51: - h_2024_Center_E - w_2023_Center_E + w_2024_Center_E = 0
_C52: h_2024_Center_E <= 300
_C53: - h_2024_Center_F - w_2023_Center_F + w_2024_Center_F = 0
_C54: h_2024_Center_F <= 300
_C55: - h_2025_Center_A - w_2024_Center_A + w_2025_Center_A = 0
_C56: h_2025_Center_A <= 300
_C57: - h_2025_Center_B - w_2024_Center_B + w_2025_Center_B = 0
_C58: h_2025_Center_B <= 300
_C59: - h_2025_Center_C - w_2024_Center_C + w_2025_Center_C = 0
_C6: x_2024_Center_A_North_Toronto + x_2024_Center_B_North_Toronto
 + x_2024_Center_C_North_Toronto + x_2024_Center_D_North_Toronto
 + x_2024_Center_E_North_Toronto + x_2024_Center_F_North_Toronto = 433025
_C60: h_2025_Center_C <= 300
_C61: - h_2025_Center_D - w_2024_Center_D + w_2025_Center_D = 0
_C62: h_2025_Center_D <= 300
_C63: - h_2025_Center_E - w_2024_Center_E + w_2025_Center_E = 0
_C64: h_2025_Center_E <= 300
_C65: - h_2025_Center_F - w_2024_Center_F + w_2025_Center_F = 0
_C66: h_2025_Center_F <= 300
_C67: y_2023_Center_E - y_2024_Center_E >= 0
_C68: y_2023_Center_E - y_2025_Center_E >= 0
_C69: y_2023_Center_F - y_2024_Center_F >= 0
_C7: x_2024_Center_A_North_York + x_2024_Center_B_North_York
 + x_2024_Center_C_North_York + x_2024_Center_D_North_York
 + x_2024_Center_E_North_York + x_2024_Center_F_North_York = 528427
_C70: y_2023_Center_F - y_2025_Center_F >= 0
_C71: - 1500 w_2023_Center_A + x_2023_Center_A_Mississauga_East
 + x_2023_Center_A_North_Toronto + x_2023_Center_A_North_York
 + x_2023_Center_A_Scarborough_East <= 0
_C72: - 1500 w_2023_Center_B + x_2023_Center_B_Mississauga_East
 + x_2023_Center_B_North_Toronto + x_2023_Center_B_North_York
 + x_2023_Center_B_Scarborough_East <= 0
_C73: - 1500 w_2023_Center_C + x_2023_Center_C_Mississauga_East
 + x_2023_Center_C_North_Toronto + x_2023_Center_C_North_York
 + x_2023_Center_C_Scarborough_East <= 0
_C74: - 1500 w_2023_Center_D + x_2023_Center_D_Mississauga_East
 + x_2023_Center_D_North_Toronto + x_2023_Center_D_North_York
 + x_2023_Center_D_Scarborough_East <= 0
_C75: - 1500 w_2023_Center_E + x_2023_Center_E_Mississauga_East
 + x_2023_Center_E_North_Toronto + x_2023_Center_E_North_York
 + x_2023_Center_E_Scarborough_East <= 0
_C76: - 1500 w_2023_Center_F + x_2023_Center_F_Mississauga_East
 + x_2023_Center_F_North_Toronto + x_2023_Center_F_North_York
 + x_2023_Center_F_Scarborough_East <= 0
_C77: - 1500 w_2024_Center_A + x_2024_Center_A_Mississauga_East
 + x_2024_Center_A_North_Toronto + x_2024_Center_A_North_York
 + x_2024_Center_A_Scarborough_East <= 0
_C78: - 1500 w_2024_Center_B + x_2024_Center_B_Mississauga_East
 + x_2024_Center_B_North_Toronto + x_2024_Center_B_North_York
 + x_2024_Center_B_Scarborough_East <= 0
_C79: - 1500 w_2024_Center_C + x_2024_Center_C_Mississauga_East
 + x_2024_Center_C_North_Toronto + x_2024_Center_C_North_York
 + x_2024_Center_C_Scarborough_East <= 0
_C8: x_2024_Center_A_Scarborough_East + x_2024_Center_B_Scarborough_East
 + x_2024_Center_C_Scarborough_East + x_2024_Center_D_Scarborough_East
 + x_2024_Center_E_Scarborough_East + x_2024_Center_F_Scarborough_East
 = 462885
_C80: - 1500 w_2024_Center_D + x_2024_Center_D_Mississauga_East
 + x_2024_Center_D_North_Toronto + x_2024_Center_D_North_York
 + x_2024_Center_D_Scarborough_East <= 0
_C81: - 1500 w_2024_Center_E + x_2024_Center_E_Mississauga_East
 + x_2024_Center_E_North_Toronto + x_2024_Center_E_North_York
 + x_2024_Center_E_Scarborough_East <= 0
_C82: - 1500 w_2024_Center_F + x_2024_Center_F_Mississauga_East
 + x_2024_Center_F_North_Toronto + x_2024_Center_F_North_York
 + x_2024_Center_F_Scarborough_East <= 0
_C83: - 1500 w_2025_Center_A + x_2025_Center_A_Mississauga_East
 + x_2025_Center_A_North_Toronto + x_2025_Center_A_North_York
 + x_2025_Center_A_Scarborough_East <= 0
_C84: - 1500 w_2025_Center_B + x_2025_Center_B_Mississauga_East
 + x_2025_Center_B_North_Toronto + x_2025_Center_B_North_York
 + x_2025_Center_B_Scarborough_East <= 0
_C85: - 1500 w_2025_Center_C + x_2025_Center_C_Mississauga_East
 + x_2025_Center_C_North_Toronto + x_2025_Center_C_North_York
 + x_2025_Center_C_Scarborough_East <= 0
_C86: - 1500 w_2025_Center_D + x_2025_Center_D_Mississauga_East
 + x_2025_Center_D_North_Toronto + x_2025_Center_D_North_York
 + x_2025_Center_D_Scarborough_East <= 0
_C87: - 1500 w_2025_Center_E + x_2025_Center_E_Mississauga_East
 + x_2025_Center_E_North_Toronto + x_2025_Center_E_North_York
 + x_2025_Center_E_Scarborough_East <= 0
_C88: - 1500 w_2025_Center_F + x_2025_Center_F_Mississauga_East
 + x_2025_Center_F_North_Toronto + x_2025_Center_F_North_York
 + x_2025_Center_F_Scarborough_East <= 0
_C9: x_2025_Center_A_Mississauga_East + x_2025_Center_B_Mississauga_East
 + x_2025_Center_C_Mississauga_East + x_2025_Center_D_Mississauga_East
 + x_2025_Center_E_Mississauga_East + x_2025_Center_F_Mississauga_East
 = 437943
Bounds
 0 <= h_2023_Center_A
 0 <= h_2023_Center_B
 0 <= h_2023_Center_C
 0 <= h_2023_Center_D
 0 <= h_2023_Center_E
 0 <= h_2023_Center_F
 0 <= h_2024_Center_A
 0 <= h_2024_Center_B
 0 <= h_2024_Center_C
 0 <= h_2024_Center_D
 0 <= h_2024_Center_E
 0 <= h_2024_Center_F
 0 <= h_2025_Center_A
 0 <= h_2025_Center_B
 0 <= h_2025_Center_C
 0 <= h_2025_Center_D
 0 <= h_2025_Center_E
 0 <= h_2025_Center_F
 0 <= w_2023_Center_A
 0 <= w_2023_Center_B
 0 <= w_2023_Center_C
 0 <= w_2023_Center_D
 0 <= w_2023_Center_E
 0 <= w_2023_Center_F
 0 <= w_2024_Center_A
 0 <= w_2024_Center_B
 0 <= w_2024_Center_C
 0 <= w_2024_Center_D
 0 <= w_2024_Center_E
 0 <= w_2024_Center_F
 0 <= w_2025_Center_A
 0 <= w_2025_Center_B
 0 <= w_2025_Center_C
 0 <= w_2025_Center_D
 0 <= w_2025_Center_E
 0 <= w_2025_Center_F
Generals
h_2023_Center_A
h_2023_Center_B
h_2023_Center_C
h_2023_Center_D
h_2023_Center_E
h_2023_Center_F
h_2024_Center_A
h_2024_Center_B
h_2024_Center_C
h_2024_Center_D
h_2024_Center_E
h_2024_Center_F
h_2025_Center_A
h_2025_Center_B
h_2025_Center_C
h_2025_Center_D
h_2025_Center_E
h_2025_Center_F
w_2023_Center_A
w_2023_Center_B
w_2023_Center_C
w_2023_Center_D
w_2023_Center_E
w_2023_Center_F
w_2024_Center_A
w_2024_Center_B
w_2024_Center_C
w_2024_Center_D
w_2024_Center_E
w_2024_Center_F
w_2025_Center_A
w_2025_Center_B
w_2025_Center_C
w_2025_Center_D
w_2025_Center_E
w_2025_Center_F
Binaries
y_2023_Center_A
y_2023_Center_B
y_2023_Center_C
y_2023_Center_D
y_2023_Center_E
y_2023_Center_F
y_2024_Center_A
y_2024_Center_B
y_2024_Center_C
y_2024_Center_D
y_2024_Center_E
y_2024_Center_F
y_2025_Center_A
y_2025_Center_B
y_2025_Center_C
y_2025_Center_D
y_2025_Center_E
y_2025_Center_F
End
